data;


param d:= 100;
param r:=5;
param p:=0.800000;
param M:=1000;
param U:=
         1         1       -8.913966e-01
         2         1        5.545897e-01
         3         1       -1.192383e+00
         4         1       -5.218141e-01
         5         1       -6.532781e-01
         6         1       -1.619330e+00
         7         1       -3.747900e-01
         8         1        1.412995e+00
         9         1        9.464623e-01
        10         1       -4.821894e-03
        11         1        8.665499e-01
        12         1       -1.635583e+00
        13         1        1.119762e-01
        14         1       -6.225908e-01
        15         1       -1.707889e-01
        16         1       -5.004970e-01
        17         1        8.697085e-01
        18         1       -1.346746e+00
        19         1       -1.756786e+00
        20         1       -1.666114e+00
        21         1       -9.329449e-01
        22         1        6.433673e-01
        23         1       -3.123147e-01
        24         1       -3.722464e-01
        25         1       -1.019932e+00
        26         1       -4.579057e-02
        27         1        4.357660e-01
        28         1        3.985651e-01
        29         1        9.795854e-01
        30         1       -1.579880e+00
        31         1        1.063526e+00
        32         1        1.484614e+00
        33         1        2.254079e+00
        34         1       -1.327777e+00
        35         1       -1.372457e+00
        36         1       -1.204509e-01
        37         1        7.335375e-01
        38         1        7.376194e-01
        39         1        4.011798e-01
        40         1       -1.706616e-01
        41         1        7.353581e-01
        42         1        3.301745e-01
        43         1        1.157665e+00
        44         1        1.262583e+00
        45         1        5.608989e-01
        46         1        2.004893e-01
        47         1       -4.465139e-01
        48         1        2.375605e+00
        49         1        3.612986e-01
        50         1       -8.194968e-02
        51         1       -4.376381e-01
        52         1        3.214508e-01
        53         1       -1.310310e+00
        54         1       -1.093012e-01
        55         1       -1.511032e+00
        56         1       -1.701371e+00
        57         1        1.859597e+00
        58         1       -1.541443e+00
        59         1        6.875056e-01
        60         1        1.153940e+00
        61         1       -1.250868e+00
        62         1        1.371246e+00
        63         1        7.756761e-01
        64         1        4.606262e-01
        65         1       -5.092183e-01
        66         1        1.724246e+00
        67         1       -5.361493e-01
        68         1       -4.054104e-01
        69         1       -1.141290e+00
        70         1        2.539754e-01
        71         1       -8.159550e-01
        72         1       -7.108573e-01
        73         1        2.190337e-01
        74         1       -1.609097e+00
        75         1        2.578517e-01
        76         1        7.733422e-01
        77         1       -1.043430e-01
        78         1       -3.900533e-02
        79         1        3.168269e-01
        80         1        3.883526e-01
        81         1       -3.526228e-01
        82         1        4.486238e-01
        83         1        1.143089e+00
        84         1       -1.381017e+00
        85         1        1.020139e+00
        86         1        1.008645e+00
        87         1        9.883086e-01
        88         1        1.428284e+00
        89         1       -2.798539e-01
        90         1        2.138920e+00
        91         1        1.394958e+00
        92         1       -2.779075e-01
        93         1       -1.305288e-01
        94         1       -1.688606e+00
        95         1        9.078916e-01
        96         1        7.662887e-01
        97         1       -2.978446e-02
        98         1       -2.065317e-02
        99         1       -1.786926e+00
       100         1       -1.371775e+00
         1         2       -2.256812e-01
         2         2        3.091496e-01
         3         2        1.427723e-01
         4         2        6.877550e-02
         5         2       -1.436549e+00
         6         2        1.731711e+00
         7         2        1.889048e-01
         8         2       -1.596617e+00
         9         2        1.186378e+00
        10         2       -2.897492e-01
        11         2        6.847537e-01
        12         2        1.916754e-02
        13         2        6.569048e-01
        14         2       -3.035677e-01
        15         2       -3.139277e-01
        16         2       -1.867442e+00
        17         2        6.032227e-01
        18         2       -8.530288e-01
        19         2        7.857062e-01
        20         2       -6.575588e-01
        21         2       -4.112375e-01
        22         2        3.835513e-01
        23         2        6.672392e-01
        24         2       -1.831097e+00
        25         2       -1.785047e-01
        26         2       -7.560158e-01
        27         2       -1.408151e+00
        28         2        3.605198e-01
        29         2       -1.835417e-01
        30         2       -6.997902e-01
        31         2        6.662110e-01
        32         2       -8.143559e-02
        33         2       -1.959045e+00
        34         2       -8.040125e-01
        35         2       -1.263412e+00
        36         2        4.985946e-01
        37         2       -5.376538e-01
        38         2       -6.822294e-01
        39         2       -2.999622e-01
        40         2       -1.733518e+00
        41         2        8.403312e-01
        42         2        1.185888e+00
        43         2       -6.814030e-01
        44         2        1.243254e+00
        45         2       -3.861252e-01
        46         2        1.838479e-01
        47         2        1.681209e+00
        48         2        2.188306e-01
        49         2        2.007758e-01
        50         2        1.810906e+00
        51         2        3.096170e-01
        52         2        9.834521e-01
        53         2       -7.022306e-01
        54         2        2.406691e-01
        55         2        6.567608e-01
        56         2        7.007117e-01
        57         2        1.422376e-01
        58         2        1.160458e+00
        59         2        1.895930e+00
        60         2       -7.461115e-01
        61         2       -1.098539e-01
        62         2       -5.374945e-01
        63         2        7.975160e-01
        64         2        5.104258e-01
        65         2        1.203793e-01
        66         2       -2.419424e-01
        67         2       -2.696801e+00
        68         2       -5.038759e-01
        69         2       -9.359507e-01
        70         2        2.446585e-01
        71         2       -8.010020e-01
        72         2       -1.678397e+00
        73         2       -4.989101e-01
        74         2        1.473951e+00
        75         2       -4.633866e-01
        76         2        1.559567e+00
        77         2        1.994499e+00
        78         2        2.578305e+00
        79         2        1.835586e+00
        80         2        7.554780e-01
        81         2        8.255413e-01
        82         2       -4.625288e-01
        83         2       -5.637614e-01
        84         2        1.364466e+00
        85         2        2.378897e-01
        86         2       -6.458402e-01
        87         2        4.066862e-01
        88         2       -5.065588e-01
        89         2       -1.670811e+00
        90         2       -6.691529e-02
        91         2       -2.275718e+00
        92         2       -9.329907e-01
        93         2        3.582374e-02
        94         2        8.163964e-01
        95         2       -2.004299e+00
        96         2        4.452232e-01
        97         2       -1.193667e+00
        98         2       -6.759508e-01
        99         2        1.096220e+00
       100         2       -1.489195e+00
         1         3        3.549440e-01
         2         3       -8.270816e-01
         3         3       -1.360677e-01
         4         3        5.739473e-01
         5         3        5.392390e-01
         6         3        9.091714e-01
         7         3       -2.283631e+00
         8         3        8.985330e-01
         9         3        4.164060e-01
        10         3        3.433452e-01
        11         3        6.100009e-01
        12         3        5.809399e-01
        13         3       -6.194592e-01
        14         3       -9.837447e-01
        15         3       -6.555835e-02
        16         3        6.989302e-01
        17         3       -6.571551e-01
        18         3       -2.739804e-02
        19         3        5.568632e-01
        20         3        2.552822e+00
        21         3        1.760080e+00
        22         3       -3.122220e-01
        23         3       -6.232730e-01
        24         3       -1.228714e+00
        25         3       -3.747354e-01
        26         3        2.224207e-01
        27         3        4.019803e-01
        28         3       -1.015682e+00
        29         3       -8.386261e-03
        30         3       -1.191417e+00
        31         3        1.047239e+00
        32         3       -6.067802e-01
        33         3       -1.214819e+00
        34         3       -2.427254e-01
        35         3       -9.417417e-02
        36         3       -1.080267e+00
        37         3       -1.801037e+00
        38         3        1.351284e-01
        39         3        1.550504e-01
        40         3       -2.324524e-02
        41         3       -1.278180e+00
        42         3       -2.903231e-02
        43         3       -7.638876e-01
        44         3        7.441489e-01
        45         3        3.827007e-01
        46         3       -5.661898e-01
        47         3        1.401207e+00
        48         3        2.084235e+00
        49         3       -7.124782e-01
        50         3        6.064040e-01
        51         3        1.387752e+00
        52         3        1.084914e+00
        53         3       -1.215592e+00
        54         3        3.550415e-01
        55         3       -1.292148e+00
        56         3        9.956143e-01
        57         3       -7.929231e-02
        58         3        9.294094e-01
        59         3       -5.577709e-01
        60         3        8.309260e-02
        61         3       -5.953424e-01
        62         3        5.105215e-01
        63         3       -5.739847e-01
        64         3        2.064911e-01
        65         3        1.126748e+00
        66         3        9.386002e-01
        67         3       -1.013368e+00
        68         3       -3.880677e-01
        69         3        3.516973e-01
        70         3        1.298157e+00
        71         3       -7.889751e-02
        72         3       -1.072879e+00
        73         3        1.048571e+00
        74         3        5.610619e-01
        75         3       -2.035451e-02
        76         3        7.959210e-01
        77         3       -2.169961e+00
        78         3        2.036643e-01
        79         3        4.549353e-01
        80         3       -2.868830e-02
        81         3        5.258005e-01
        82         3       -3.312430e-01
        83         3        4.888282e-01
        84         3        1.195982e-01
        85         3        1.060640e+00
        86         3       -4.304764e-01
        87         3        1.599307e+00
        88         3       -7.485214e-01
        89         3       -1.786714e+00
        90         3       -8.761287e-01
        91         3        5.157952e-01
        92         3       -5.835996e-02
        93         3        2.026391e-01
        94         3        1.257220e+00
        95         3        2.409919e+00
        96         3        3.402934e-01
        97         3        3.356168e-01
        98         3        7.806575e-01
        99         3       -1.851371e+00
       100         3       -7.229601e-01
         1         4       -1.500220e+00
         2         4       -4.855501e-01
         3         4       -2.569673e-01
         4         4       -5.274917e-01
         5         4       -1.043200e-01
         6         4       -8.324345e-01
         7         4        2.315487e+00
         8         4        1.281162e+00
         9         4        9.761552e-01
        10         4        5.103803e-01
        11         4        1.467997e+00
        12         4        1.515902e+00
        13         4       -6.946873e-01
        14         4        6.758571e-01
        15         4       -6.194980e-01
        16         4       -5.933263e-01
        17         4       -3.994869e-01
        18         4        1.659038e+00
        19         4       -5.314647e-01
        20         4       -9.084242e-01
        21         4       -4.331382e-01
        22         4        1.029391e-02
        23         4        9.975745e-02
        24         4       -1.838389e-01
        25         4        1.185626e+00
        26         4        4.466368e-02
        27         4       -4.999272e-01
        28         4        4.357275e-03
        29         4        4.447655e-01
        30         4        1.084054e+00
        31         4        1.847641e+00
        32         4       -1.661098e+00
        33         4        6.139425e-01
        34         4        1.856502e+00
        35         4       -3.524305e-01
        36         4        5.642132e-01
        37         4        3.074003e-01
        38         4        1.478901e-01
        39         4       -6.647769e-01
        40         4        6.274186e-02
        41         4       -1.387633e-01
        42         4        5.878015e-01
        43         4        2.644757e-01
        44         4        6.718472e-01
        45         4       -8.534317e-01
        46         4       -8.295176e-01
        47         4        2.489882e-01
        48         4       -1.445900e+00
        49         4       -1.757725e+00
        50         4       -2.583334e-01
        51         4        6.463481e-01
        52         4       -1.134999e+00
        53         4       -8.809956e-01
        54         4       -3.690159e-01
        55         4       -4.563490e-01
        56         4        3.458776e-01
        57         4        9.505109e-01
        58         4        7.899670e-01
        59         4        2.608596e+00
        60         4        4.294361e-01
        61         4       -1.862271e-01
        62         4        5.689317e-01
        63         4       -2.253959e+00
        64         4        1.235973e+00
        65         4       -6.475809e-01
        66         4        7.270860e-01
        67         4       -6.279109e-01
        68         4        3.981759e-01
        69         4       -5.062869e-01
        70         4       -1.266648e+00
        71         4       -1.393759e+00
        72         4       -8.183095e-01
        73         4       -1.575075e+00
        74         4        7.476237e-01
        75         4       -1.272034e+00
        76         4       -9.969208e-01
        77         4       -1.101910e+00
        78         4       -1.485284e+00
        79         4       -1.173274e+00
        80         4        3.309640e-01
        81         4       -9.679309e-01
        82         4       -7.313569e-01
        83         4       -5.707784e-01
        84         4        1.606062e+00
        85         4        3.830634e-01
        86         4       -4.377596e-01
        87         4        6.475962e-01
        88         4        5.660335e-01
        89         4       -5.333519e-01
        90         4        7.701587e-01
        91         4       -1.157255e+00
        92         4       -6.995318e-01
        93         4       -5.873093e-01
        94         4       -6.752257e-01
        95         4        1.325567e+00
        96         4        1.048342e+00
        97         4       -1.729477e+00
        98         4       -1.625132e+00
        99         4        6.566521e-01
       100         4       -5.298140e-01
         1         5        1.685875e-01
         2         5        5.541921e-01
         3         5        1.804417e-01
         4         5       -1.194968e+00
         5         5       -1.493563e+00
         6         5       -1.031510e+00
         7         5        3.501978e-01
         8         5        4.262929e-01
         9         5        9.105145e-01
        10         5       -9.944564e-01
        11         5       -1.083414e+00
        12         5        2.629558e-01
        13         5        1.214054e+00
        14         5       -4.320545e-01
        15         5        3.587248e-01
        16         5       -1.536342e-01
        17         5        5.998444e-01
        18         5       -5.600578e-01
        19         5       -1.246769e+00
        20         5        7.984545e-01
        21         5       -1.978654e-03
        22         5        1.206640e+00
        23         5        5.067265e-01
        24         5       -5.945773e-01
        25         5        1.207031e+00
        26         5       -4.556274e-01
        27         5       -2.058638e-01
        28         5       -1.339941e+00
        29         5       -4.821600e-01
        30         5        1.292610e-01
        31         5        6.412235e-01
        32         5        1.216359e+00
        33         5       -4.533280e-01
        34         5        1.099699e+00
        35         5        9.244223e-01
        36         5        3.063434e+00
        37         5       -8.626353e-01
        38         5       -1.341592e-01
        39         5       -2.108312e+00
        40         5       -4.686796e-01
        41         5       -6.402560e-01
        42         5        1.566923e+00
        43         5        1.135153e+00
        44         5       -2.899119e-02
        45         5        1.101120e+00
        46         5        9.053861e-01
        47         5       -6.364207e-01
        48         5       -3.376217e-01
        49         5       -1.265682e+00
        50         5        2.730758e+00
        51         5        1.211134e+00
        52         5       -1.942459e-01
        53         5        3.672242e-01
        54         5        8.933907e-01
        55         5        1.877289e-01
        56         5        5.663077e-01
        57         5        9.745382e-01
        58         5       -1.097130e+00
        59         5        1.347378e+00
        60         5        2.323989e+00
        61         5        3.290002e-01
        62         5       -1.294260e+00
        63         5       -3.520016e-01
        64         5        2.207262e+00
        65         5       -9.421035e-01
        66         5       -1.415852e+00
        67         5       -1.968618e-01
        68         5        1.178614e+00
        69         5       -7.835013e-01
        70         5        9.390892e-01
        71         5       -1.478802e-01
        72         5        1.316800e+00
        73         5        1.261871e+00
        74         5        8.586098e-01
        75         5       -9.577927e-01
        76         5        1.533235e+00
        77         5        8.432769e-01
        78         5        6.819019e-02
        79         5       -6.370010e-01
        80         5       -3.379613e-01
        81         5        1.848872e+00
        82         5       -4.245986e-01
        83         5       -1.474910e+00
        84         5       -1.659369e-01
        85         5        7.455311e-02
        86         5        1.067229e+00
        87         5        5.768316e-01
        88         5        3.624108e-01
        89         5        1.689286e+00
        90         5       -1.554899e+00
        91         5        1.225106e+00
        92         5        8.867813e-01
        93         5        1.103880e+00
        94         5        5.453146e-01
        95         5        4.335559e-01
        96         5        7.641260e-01
        97         5        7.448342e-01
        98         5        2.088847e-01
        99         5       -8.212319e-01
       100         5       -9.366356e-01
;

param theta:=
    1        6.251910e-01
    2        1.567324e+00
    3       -2.133906e-01
    4        7.024578e-01
    5       -4.959339e-01
;
param X_true:=
    1       -2.124010e+00
    2        3.892391e-01
    3       -7.636409e-01
    4       -1.181086e-01
    5       -2.108429e+00
    6        1.434544e+00
    7        2.003170e+00
    8       -1.124111e+00
    9        2.596726e+00
   10        3.208384e-01
   11        3.054128e+00
   12       -1.826614e-01
   13        1.430926e-01
   14        3.505563e-02
   15       -1.197777e+00
   16       -3.730308e+00
   17        1.050135e+00
   18       -7.309865e-01
   19        2.569611e-01
   20       -3.650663e+00
   21       -1.907203e+00
   22        4.796910e-01
   23        8.033278e-01
   24       -2.673943e+00
   25       -6.031301e-01
   26       -1.004021e+00
   27       -2.267102e+00
   28        1.699377e+00
   29        8.791532e-01
   30       -1.133989e+00
   31        2.465764e+00
   32       -8.406044e-01
   33       -7.467953e-01
   34       -1.279995e+00
   35       -3.523219e+00
   36       -1.845575e-01
   37        6.446028e-01
   38       -4.669318e-01
   39        3.260097e-01
   40       -2.540866e+00
   41        2.269549e+00
   42        1.706787e+00
   43       -5.573766e-01
   44        3.066119e+00
   45       -1.482154e+00
   46       -4.976593e-01
   47        2.546773e+00
   48        5.342374e-01
   49        8.700307e-02
   50        1.120476e+00
   51       -2.303629e-01
   52        8.103695e-01
   53       -2.461602e+00
   54       -4.704591e-01
   55       -5.340368e-02
   56       -2.153098e-01
   57        1.587517e+00
   58        1.757195e+00
   59        4.684663e+00
   60       -1.316362e+00
   61       -1.120290e+00
   62        9.478871e-01
   63        4.495567e-01
   64        8.182543e-01
   65       -3.585701e-01
   66        1.711356e+00
   67       -4.689035e+00
   68       -1.264402e+00
   69       -2.222227e+00
   70       -1.090918e+00
   71       -2.653678e+00
   72       -4.075522e+00
   73       -2.600875e+00
   74        1.283519e+00
   75       -9.785010e-01
   76        1.299326e+00
   77        2.331838e+00
   78        2.894550e+00
   79        2.468233e+00
   80        1.833262e+00
   81       -6.342970e-01
   82       -6.745809e-01
   83        5.593475e-02
   84        2.462538e+00
   85        1.015574e+00
   86       -1.125363e+00
   87        1.083673e+00
   88        4.762514e-01
   89       -3.626515e+00
   90        2.731809e+00
   91       -4.224554e+00
   92       -2.553939e+00
   93       -1.029519e+00
   94       -7.883020e-01
   95       -2.372227e+00
   96        1.461398e+00
   97       -3.544417e+00
   98       -2.483865e+00
   99        1.865300e+00
  100       -2.946892e+00
;
param X:=
    1       -2.124010e+00
    2       -2.363024e-01
    3        1.048637e+00
    4       -1.369926e-01
    5        1.341626e-01
    6       -1.000315e+00
    7        2.003170e+00
    8       -8.735266e-02
    9        2.596726e+00
   10        9.670162e-01
   11        2.115186e+00
   12        1.917516e-01
   13        1.430926e-01
   14       -5.855157e-01
   15        6.798058e-01
   16       -5.060954e-01
   17        1.050135e+00
   18       -7.309865e-01
   19        2.569611e-01
   20        4.012473e-01
   21        1.121866e-01
   22       -6.825293e-02
   23        1.181026e+00
   24       -2.360165e-01
   25        1.965529e-01
   26       -1.600043e+00
   27       -8.023721e-02
   28        4.335047e-01
   29        1.581032e+00
   30        3.380236e-01
   31        2.465764e+00
   32        1.503538e-02
   33        1.455926e+00
   34       -1.279995e+00
   35       -4.908406e-01
   36        1.085517e-01
   37       -1.949957e-01
   38       -4.669318e-01
   39        1.232446e+00
   40        2.204184e+00
   41        1.195028e+00
   42       -1.236820e+00
   43       -5.573766e-01
   44       -6.777336e-01
   45        1.040982e+00
   46        1.742857e+00
   47        8.195235e-01
   48        5.342374e-01
   49        8.700307e-02
   50        2.615298e-01
   51        7.434223e-01
   52        1.370262e+00
   53       -2.461602e+00
   54        6.860206e-01
   55        2.503457e+00
   56       -2.153098e-01
   57        1.172168e-01
   58        1.757195e+00
   59       -4.959627e-02
   60       -2.984418e-01
   61       -1.120290e+00
   62        6.340850e-01
   63        6.418084e-01
   64        2.087409e+00
   65        2.260136e-01
   66       -8.491050e-01
   67        1.221969e-01
   68        4.506922e-01
   69        8.918064e-02
   70        6.030901e-01
   71        7.702093e-01
   72       -8.011692e-02
   73       -3.382977e-01
   74        2.926990e-01
   75       -1.585319e+00
   76        3.428731e-01
   77        1.233725e+00
   78       -1.341457e+00
   79        3.290871e-01
   80        4.138458e-01
   81        3.438970e-01
   82       -7.045727e-01
   83        5.593475e-02
   84       -4.057098e-02
   85        6.994556e-02
   86        1.827098e+00
   87        9.524537e-01
   88        3.072716e-01
   89        9.337032e-01
   90        2.731809e+00
   91        1.061818e-01
   92        1.514869e+00
   93       -4.258134e-01
   94       -6.757390e-01
   95       -2.560126e-01
   96        1.180668e+00
   97       -3.544417e+00
   98       -1.603020e+00
   99       -1.205650e+00
  100       -1.981619e-01
;
param outliervec:=
    1    0
    2    1
    3    1
    4    1
    5    1
    6    1
    7    0
    8    1
    9    0
   10    1
   11    1
   12    1
   13    0
   14    1
   15    1
   16    1
   17    0
   18    0
   19    0
   20    1
   21    1
   22    1
   23    1
   24    1
   25    1
   26    1
   27    1
   28    1
   29    1
   30    1
   31    0
   32    1
   33    1
   34    0
   35    1
   36    1
   37    1
   38    0
   39    1
   40    1
   41    1
   42    1
   43    0
   44    1
   45    1
   46    1
   47    1
   48    0
   49    0
   50    1
   51    1
   52    1
   53    0
   54    1
   55    1
   56    0
   57    1
   58    0
   59    1
   60    1
   61    0
   62    1
   63    1
   64    1
   65    1
   66    1
   67    1
   68    1
   69    1
   70    1
   71    1
   72    1
   73    1
   74    1
   75    1
   76    1
   77    1
   78    1
   79    1
   80    1
   81    1
   82    1
   83    0
   84    1
   85    1
   86    1
   87    1
   88    1
   89    1
   90    0
   91    1
   92    1
   93    1
   94    1
   95    1
   96    1
   97    0
   98    1
   99    1
  100    1
;